(declare-fun papp7 () Int)
(declare-fun GHC.Base.id () Int)
(declare-fun totalityError () Int)
(declare-fun lq_anf$36$$35$$35$7205759403792812397$35$$35$d4Tb () Int)
(declare-fun GHC.Types.$91$$93$ () Int)
(declare-fun lq_karg$36$f64$35$$35$a4PL$35$$35$k_$35$$35$949 () Int)
(declare-fun GHC.Types.Word32Rep () Int)
(declare-fun GHC.Stable.StablePtr () Int)
(declare-fun lq_tmp$36$x$35$$35$1305 () Int)
(declare-fun GHC.Real.divMod () Int)
(declare-fun lq_tmp$36$x$35$$35$486 () Int)
(declare-fun GHC.Prim.$62$$61$$35$ () Int)
(declare-fun GHC.Word.$36$fNumWord64 () Int)
(declare-fun GHC.Types.BoxedRep () Int)
(declare-fun GHC.Float.sinh () Int)
(declare-fun lq_tmp$36$x$35$$35$1666 () Int)
(declare-fun GHC.Prim.$40$$35$$44$$44$$44$$44$$44$$44$$44$$35$$41$ () Int)
(declare-fun lq_anf$36$$35$$35$7205759403792812389$35$$35$d4T3 () Int)
(declare-fun lq_anf$36$$35$$35$7205759403792812400$35$$35$d4Te () Str)
(declare-fun VV$35$$35$F$35$$35$20 () Int)
(declare-fun GHC.Types.C$35$ () Int)
(declare-fun lq_anf$36$$35$$35$7205759403792812388$35$$35$d4T2 () Int)
(declare-fun GHC.Real.$47$ () Int)
(declare-fun GHC.Float.atanh () Int)
(declare-fun lq_tmp$36$x$35$$35$869 () Int)
(declare-fun lq_tmp$36$x$35$$35$1470 () Int)
(declare-fun lq_anf$36$$35$$35$7205759403792812390$35$$35$d4T4 () Int)
(declare-fun lq_tmp$36$x$35$$35$1037 () Int)
(declare-fun GHC.Float.tan () Int)
(declare-fun GHC.Word.W32$35$ () Int)
(declare-fun GHC.Types.$58$ () Int)
(declare-fun Data.Bits.And () Int)
(declare-fun tail () Int)
(declare-fun lit$36$Data.ByteString.Builder.Prim.Internal.UncheckedShifts () Str)
(declare-fun lq_anf$36$$35$$35$7205759403792812393$35$$35$d4T7 () Int)
(declare-fun GHC.Float.asinh () Int)
(declare-fun ds_d4Sr () Int)
(declare-fun lq_anf$36$$35$$35$7205759403792812391$35$$35$d4T5 () Int)
(declare-fun lq_anf$36$$35$$35$7205759403792812392$35$$35$d4T6 () Int)
(declare-fun lq_karg$36$lq_anf$36$$35$$35$7205759403792812372$35$$35$d4SM$35$$35$k_$35$$35$949 () Int)
(declare-fun GHC.Types.Word8Rep () Int)
(declare-fun GHC.Float.pi () Int)
(declare-fun lq_karg$36$lq_anf$36$$35$$35$7205759403792812365$35$$35$d4SF$35$$35$k_$35$$35$949 () Int)
(declare-fun lq_anf$36$$35$$35$7205759403792812362$35$$35$d4SC () Str)
(declare-fun GHC.Real.div () Int)
(declare-fun lq_anf$36$$35$$35$7205759403792812364$35$$35$d4SE () Str)
(declare-fun ds_d4So () Int)
(declare-fun lq_karg$36$lq_anf$36$$35$$35$7205759403792812369$35$$35$d4SJ$35$$35$k_$35$$35$949 () Int)
(declare-fun lq_anf$36$$35$$35$7205759403792812368$35$$35$d4SI () Int)
(declare-fun GHC.Bits.$36$fBitsWord () Int)
(declare-fun GHC.Float.tanh () Int)
(declare-fun lq_anf$36$$35$$35$7205759403792812366$35$$35$d4SG () Int)
(declare-fun i$35$$35$a4PH () Int)
(declare-fun lq_anf$36$$35$$35$7205759403792812360$35$$35$d4SA () Str)
(declare-fun lq_karg$36$lq_anf$36$$35$$35$7205759403792812361$35$$35$d4SB$35$$35$k_$35$$35$949 () Str)
(declare-fun GHC.Word.W8$35$ () Int)
(declare-fun Data.Bits.Xor () Int)
(declare-fun ds_d4Sd () Int)
(declare-fun lq_karg$36$f32$35$$35$a4PK$35$$35$k_$35$$35$949 () Int)
(declare-fun GHC.Tuple.$40$$44$$41$ () Int)
(declare-fun lq_anf$36$$35$$35$7205759403792812358$35$$35$d4Sy () Str)
(declare-fun GHC.Real.$94$ () Int)
(declare-fun lq_anf$36$$35$$35$7205759403792812426$35$$35$d4TE () Int)
(declare-fun GHC.Base.$36$ () Int)
(declare-fun GHC.Show.show () Int)
(declare-fun i$35$$35$a4PF () Int)
(declare-fun GHC.Types.W$35$ () Int)
(declare-fun lq_anf$36$$35$$35$7205759403792812396$35$$35$d4Ta () Int)
(declare-fun papp5 () Int)
(declare-fun GHC.Types.Word16Rep () Int)
(declare-fun snd () Int)
(declare-fun lq_karg$36$lq_anf$36$$35$$35$7205759403792812358$35$$35$d4Sy$35$$35$k_$35$$35$949 () Str)
(declare-fun lq_tmp$36$x$35$$35$1189 () Int)
(declare-fun GHC.Base.$43$$43$ () Int)
(declare-fun GHC.Maybe.Just () Int)
(declare-fun x_Tuple22 () Int)
(declare-fun lq_tmp$36$x$35$$35$826 () Int)
(declare-fun lq_tmp$36$x$35$$35$1624 () Int)
(declare-fun lq_karg$36$lq_tmp$36$x$35$$35$487$35$$35$k_$35$$35$492 () Int)
(declare-fun lq_tmp$36$x$35$$35$1660 () Int)
(declare-fun w$35$$35$a4PG () Int)
(declare-fun lq_tmp$36$x$35$$35$1796 () Int)
(declare-fun lq_anf$36$$35$$35$7205759403792812399$35$$35$d4Td () Str)
(declare-fun lq_tmp$36$x$35$$35$1306 () Int)
(declare-fun GHC.Real.fromIntegral () Int)
(declare-fun lit$36$caseWordSize_32_64$58$$32$unsupported$32$Word$32$bit$45$size$32$ () Str)
(declare-fun GHC.IO.Exception.IOError () Int)
(declare-fun lq_tmp$36$x$35$$35$485 () Int)
(declare-fun lq_tmp$36$x$35$$35$652 () Int)
(declare-fun GHC.Prim.$45$$35$ () Int)
(declare-fun GHC.Types.Module () Int)
(declare-fun GHC.Stack.Types.FreezeCallStack () Int)
(declare-fun lq_anf$36$$35$$35$7205759403792812383$35$$35$d4SX () Str)
(declare-fun lq_anf$36$$35$$35$7205759403792812407$35$$35$d4Tl () Int)
(declare-fun GHC.Types.TrNameD () Int)
(declare-fun lq_tmp$36$x$35$$35$1342 () Int)
(declare-fun GHC.Types.Word64Rep () Int)
(declare-fun lq_anf$36$$35$$35$7205759403792812403$35$$35$d4Th () Int)
(declare-fun lq_tmp$36$x$35$$35$1071 () Int)
(declare-fun lq_anf$36$$35$$35$7205759403792812376$35$$35$d4SQ () Str)
(declare-fun GHC.Base.$58$$124$ () Int)
(declare-fun f32$35$$35$a4PK () Int)
(declare-fun lq_karg$36$lq_anf$36$$35$$35$7205759403792812357$35$$35$d4Sx$35$$35$k_$35$$35$949 () Str)
(declare-fun lq_tmp$36$x$35$$35$828 () Int)
(declare-fun lq_karg$36$lq_anf$36$$35$$35$7205759403792812371$35$$35$d4SL$35$$35$k_$35$$35$949 () Int)
(declare-fun lq_karg$36$lq_anf$36$$35$$35$7205759403792812373$35$$35$d4SN$35$$35$k_$35$$35$949 () Int)
(declare-fun fix$36$$36$dIP_a4QS () Int)
(declare-fun w$35$$35$a4PI () Int)
(declare-fun GHC.Float.sqrt () Int)
(declare-fun GHC.Prim.$62$$35$ () Int)
(declare-fun fix$36$$36$dIP_a4Rh () Int)
(declare-fun lq_karg$36$lq_anf$36$$35$$35$7205759403792812368$35$$35$d4SI$35$$35$k_$35$$35$949 () Int)
(declare-fun GHC.Types.IntRep () Int)
(declare-fun lq_karg$36$lq_anf$36$$35$$35$7205759403792812364$35$$35$d4SE$35$$35$k_$35$$35$949 () Str)
(declare-fun GHC.Prim.$43$$35$ () Int)
(declare-fun lq_karg$36$lq_anf$36$$35$$35$7205759403792812360$35$$35$d4SA$35$$35$k_$35$$35$949 () Str)
(declare-fun i$35$$35$a4PJ () Int)
(declare-fun lq_karg$36$lq_anf$36$$35$$35$7205759403792812362$35$$35$d4SC$35$$35$k_$35$$35$949 () Str)
(declare-fun GHC.Prim.$40$$35$$44$$44$$44$$44$$44$$44$$44$$44$$44$$44$$44$$44$$44$$44$$44$$44$$44$$44$$44$$44$$44$$44$$44$$44$$44$$44$$44$$44$$44$$44$$44$$44$$44$$44$$44$$44$$44$$44$$44$$44$$44$$44$$44$$44$$44$$44$$44$$44$$44$$44$$44$$44$$44$$44$$44$$44$$44$$44$$44$$44$$44$$44$$44$$35$$41$ () Int)
(declare-fun lq_anf$36$$35$$35$7205759403792812384$35$$35$d4SY () Int)
(declare-fun GHC.Prim.$40$$35$$44$$44$$44$$44$$44$$44$$44$$44$$44$$44$$44$$44$$44$$44$$44$$44$$44$$44$$44$$44$$44$$44$$44$$44$$44$$44$$44$$44$$44$$44$$44$$35$$41$ () Int)
(declare-fun lq_tmp$36$x$35$$35$609 () Int)
(declare-fun lq_karg$36$lq_anf$36$$35$$35$7205759403792812366$35$$35$d4SG$35$$35$k_$35$$35$949 () Int)
(declare-fun lq_anf$36$$35$$35$7205759403792812379$35$$35$d4ST () Str)
(declare-fun GHC.Types.DoubleRep () Int)
(declare-fun lq_karg$36$lq_anf$36$$35$$35$7205759403792812376$35$$35$d4SQ$35$$35$k_$35$$35$949 () Str)
(declare-fun fix$36$$36$dIP_a4Rr () Int)
(declare-fun Data.ByteString.Builder.Prim.Internal.UncheckedShifts.shiftr_w () Int)
(declare-fun lit$36$undefined () Str)
(declare-fun GHC.Types.Int8Rep () Int)
(declare-fun GHC.Real.$36$fIntegralWord () Int)
(declare-fun addrLen () Int)
(declare-fun GHC.Real.$36$W$58$$37$ () Int)
(declare-fun lq_karg$36$lq_anf$36$$35$$35$7205759403792812389$35$$35$d4T3$35$$35$k_$35$$35$949 () Int)
(declare-fun lq_karg$36$lq_anf$36$$35$$35$7205759403792812382$35$$35$d4SW$35$$35$k_$35$$35$949 () Str)
(declare-fun GHC.Types.WordRep () Int)
(declare-fun papp3 () Int)
(declare-fun lq_karg$36$lq_anf$36$$35$$35$7205759403792812380$35$$35$d4SU$35$$35$k_$35$$35$949 () Str)
(declare-fun GHC.Real.toInteger () Int)
(declare-fun lq_karg$36$lq_anf$36$$35$$35$7205759403792812388$35$$35$d4T2$35$$35$k_$35$$35$949 () Int)
(declare-fun lit$36$TODO$58$LH () Str)
(declare-fun GHC.Float.logBase () Int)
(declare-fun lq_tmp$36$x$35$$35$611 () Int)
(declare-fun lq_tmp$36$x$35$$35$1507 () Int)
(declare-fun w$35$$35$a4PE () Int)
(declare-fun lq_karg$36$lq_anf$36$$35$$35$7205759403792812359$35$$35$d4Sz$35$$35$k_$35$$35$949 () Str)
(declare-fun lq_anf$36$$35$$35$7205759403792812378$35$$35$d4SS () Str)
(declare-fun lit$36$error () Str)
(declare-fun lit$36$bytestring$45$lh$45$0.13.0.0$45$5odPtf5eoawLYRpIZ0llE6 () Str)
(declare-fun GHC.Bits.bitSize () Int)
(declare-fun GHC.Show.$36$fShowInt () Int)
(declare-fun GHC.Ptr.FunPtr () Int)
(declare-fun lq_tmp$36$x$35$$35$685 () Int)
(declare-fun GHC.Enum.C$58$Bounded () Int)
(declare-fun lq_tmp$36$x$35$$35$902 () Int)
(declare-fun lq_tmp$36$x$35$$35$1623 () Int)
(declare-fun lq_anf$36$$35$$35$7205759403792812363$35$$35$d4SD () Str)
(declare-fun GHC.Types.True () Bool)
(declare-fun GHC.CString.unpackCString$35$ () Int)
(declare-fun Foreign.Marshal.Pool.Pool () Int)
(declare-fun GHC.Float.asin () Int)
(declare-fun lq_karg$36$lq_anf$36$$35$$35$7205759403792812383$35$$35$d4SX$35$$35$k_$35$$35$949 () Str)
(declare-fun s$35$$35$a4PD () Int)
(declare-fun lq_tmp$36$x$35$$35$1788 () Int)
(declare-fun GHC.Prim.$40$$35$$44$$44$$44$$35$$41$ () Int)
(declare-fun GHC.Stack.Types.EmptyCallStack () Int)
(declare-fun x_Tuple33 () Int)
(declare-fun lq_karg$36$lq_anf$36$$35$$35$7205759403792812370$35$$35$d4SK$35$$35$k_$35$$35$949 () Int)
(declare-fun Data.Either.Right () Int)
(declare-fun GHC.Float.atan () Int)
(declare-fun lq_karg$36$lq_anf$36$$35$$35$7205759403792812374$35$$35$d4SO$35$$35$k_$35$$35$949 () Int)
(declare-fun lq_anf$36$$35$$35$7205759403792812451$35$$35$d4U3 () Int)
(declare-fun lq_anf$36$$35$$35$7205759403792812359$35$$35$d4Sz () Str)
(declare-fun GHC.Float.$42$$42$ () Int)
(declare-fun GHC.Stack.Types.emptyCallStack () Int)
(declare-fun lq_anf$36$$35$$35$7205759403792812355$35$$35$d4Sv () Int)
(declare-fun lit$36$.$47$Data$47$ByteString$47$Builder$47$Prim$47$Internal$47$UncheckedShifts.hs () Str)
(declare-fun cast_as () Int)
(declare-fun GHC.Ptr.Ptr () Int)
(declare-fun lq_tmp$36$x$35$$35$1036 () Int)
(declare-fun lq_karg$36$lq_anf$36$$35$$35$7205759403792812367$35$$35$d4SH$35$$35$k_$35$$35$949 () Int)
(declare-fun cast_as_int () Int)
(declare-fun VV$35$$35$F$35$$35$26 () Str)
(declare-fun GHC.Num.$43$ () Int)
(declare-fun GHC.Types.F$35$ () Int)
(declare-fun lq_karg$36$lq_anf$36$$35$$35$7205759403792812375$35$$35$d4SP$35$$35$k_$35$$35$949 () Int)
(declare-fun lq_karg$36$lq_anf$36$$35$$35$7205759403792812377$35$$35$d4SR$35$$35$k_$35$$35$949 () Str)
(declare-fun lq_karg$36$lq_anf$36$$35$$35$7205759403792812392$35$$35$d4T6$35$$35$k_$35$$35$949 () Int)
(declare-fun GHC.Base.assert () Int)
(declare-fun lq_anf$36$$35$$35$7205759403792812372$35$$35$d4SM () Int)
(declare-fun lq_karg$36$lq_anf$36$$35$$35$7205759403792812393$35$$35$d4T7$35$$35$k_$35$$35$949 () Int)
(declare-fun len () Int)
(declare-fun lq_karg$36$lq_anf$36$$35$$35$7205759403792812390$35$$35$d4T4$35$$35$k_$35$$35$949 () Int)
(declare-fun lq_karg$36$lq_anf$36$$35$$35$7205759403792812391$35$$35$d4T5$35$$35$k_$35$$35$949 () Int)
(declare-fun GHC.Prim.$40$$35$$44$$44$$35$$41$ () Int)
(declare-fun lq_karg$36$VV$35$$35$491$35$$35$k_$35$$35$492 () Int)
(declare-fun Data.Bits.Ior () Int)
(declare-fun GHC.Types.Int64Rep () Int)
(declare-fun lq_anf$36$$35$$35$7205759403792812424$35$$35$d4TC () Int)
(declare-fun lq_anf$36$$35$$35$7205759403792812382$35$$35$d4SW () Str)
(declare-fun lq_anf$36$$35$$35$7205759403792812380$35$$35$d4SU () Str)
(declare-fun GHC.Types.LT () Int)
(declare-fun GHC.Tuple.$40$$44$$44$$41$ () Int)
(declare-fun papp1 () Int)
(declare-fun lq_karg$36$lq_anf$36$$35$$35$7205759403792812381$35$$35$d4SV$35$$35$k_$35$$35$949 () Str)
(declare-fun lq_anf$36$$35$$35$7205759403792812449$35$$35$d4U1 () Int)
(declare-fun GHC.Err.undefined () Int)
(declare-fun GHC.Types.AddrRep () Int)
(declare-fun GHC.Prim.$60$$35$ () Int)
(declare-fun lq_karg$36$VV$35$$35$948$35$$35$k_$35$$35$949 () Int)
(declare-fun lq_anf$36$$35$$35$7205759403792812375$35$$35$d4SP () Int)
(declare-fun papp6 () Int)
(declare-fun GHC.Real.mod () Int)
(declare-fun GHC.Float.acos () Int)
(declare-fun GHC.Classes.C$58$IP () Int)
(declare-fun lq_anf$36$$35$$35$7205759403792812377$35$$35$d4SR () Str)
(declare-fun Data.Either.Left () Int)
(declare-fun lq_anf$36$$35$$35$7205759403792812405$35$$35$d4Tj () Int)
(declare-fun lq_tmp$36$x$35$$35$827 () Int)
(declare-fun lq_tmp$36$x$35$$35$1625 () Int)
(declare-fun liquid_internal_this () Int)
(declare-fun lq_tmp$36$x$35$$35$863 () Int)
(declare-fun GHC.Real.fromRational () Int)
(declare-fun lq_anf$36$$35$$35$7205759403792812385$35$$35$d4SZ () Int)
(declare-fun lq_karg$36$lq_anf$36$$35$$35$7205759403792812384$35$$35$d4SY$35$$35$k_$35$$35$949 () Int)
(declare-fun fldList () Int)
(declare-fun GHC.Tuple.$40$$41$ () Int)
(declare-fun lqdc$35$$35$$36$select$35$$35$GHC.Maybe.Just$35$$35$1 () Int)
(declare-fun GHC.Types.I$35$ () Int)
(declare-fun x_Tuple31 () Int)
(declare-fun GHC.Num.Integer.IS () Int)
(declare-fun GHC.Types.FloatRep () Int)
(declare-fun GHC.Word.W16$35$ () Int)
(declare-fun lq_tmp$36$x$35$$35$1381 () Int)
(declare-fun GHC.Real.quot () Int)
(declare-fun GHC.Num.$36$fNumWord () Int)
(declare-fun Data.Tuple.fst () Int)
(declare-fun GHC.Word.W64$35$ () Int)
(declare-fun lq_anf$36$$35$$35$7205759403792812367$35$$35$d4SH () Int)
(declare-fun Foreign.Ptr.IntPtr () Int)
(declare-fun lq_tmp$36$x$35$$35$1348 () Int)
(declare-fun GHC.Float.acosh () Int)
(declare-fun Data.Tuple.snd () Int)
(declare-fun GHC.Types.isTrue$35$ () Int)
(declare-fun lq_tmp$36$x$35$$35$1825 () Int)
(declare-fun GHC.Types.EQ () Int)
(declare-fun ds_d4Sq () Int)
(declare-fun GHC.Real.$58$$37$ () Int)
(declare-fun GHC.Types.MkCoercible () Int)
(declare-fun GHC.Types.VecRep () Int)
(declare-fun fst () Int)
(declare-fun GHC.Num.negate () Int)
(declare-fun ds_d4Sn () Int)
(declare-fun GHC.Num.$45$ () Int)
(declare-fun GHC.Real.rem () Int)
(declare-fun GHC.Prim.$40$$35$$35$$41$ () Int)
(declare-fun fix$36$$36$dIP_a4R6 () Int)
(declare-fun GHC.Word.$36$fIntegralWord64 () Int)
(declare-fun lq_karg$36$lq_anf$36$$35$$35$7205759403792812363$35$$35$d4SD$35$$35$k_$35$$35$949 () Str)
(declare-fun GHC.Real.recip () Int)
(declare-fun lq_karg$36$lq_anf$36$$35$$35$7205759403792812386$35$$35$d4T0$35$$35$k_$35$$35$949 () Int)
(declare-fun ds_d4Sk () Int)
(declare-fun GHC.Prim.$61$$61$$35$ () Int)
(declare-fun lq_karg$36$lq_anf$36$$35$$35$7205759403792812387$35$$35$d4T1$35$$35$k_$35$$35$949 () Int)
(declare-fun autolen () Int)
(declare-fun GHC.Float.cosh () Int)
(declare-fun Data.ByteString.Builder.Prim.Internal.UncheckedShifts.shiftr_w16 () Int)
(declare-fun GHC.Base.. () Int)
(declare-fun Data.Bits.Iff () Int)
(declare-fun GHC.Types.Int16Rep () Int)
(declare-fun papp4 () Int)
(declare-fun lq_karg$36$lq_anf$36$$35$$35$7205759403792812379$35$$35$d4ST$35$$35$k_$35$$35$949 () Str)
(declare-fun lq_tmp$36$x$35$$35$1699 () Int)
(declare-fun lq_karg$36$lq_anf$36$$35$$35$7205759403792812394$35$$35$d4T8$35$$35$k_$35$$35$949 () Int)
(declare-fun GHC.Stack.Types.PushCallStack () Int)
(declare-fun GHC.Stack.Types.pushCallStack () Int)
(declare-fun lq_tmp$36$x$35$$35$610 () Int)
(declare-fun GHC.Real.quotRem () Int)
(declare-fun GHC.Stack.Types.SrcLoc () Int)
(declare-fun lq_anf$36$$35$$35$7205759403792812365$35$$35$d4SF () Int)
(declare-fun lq_anf$36$$35$$35$7205759403792812369$35$$35$d4SJ () Int)
(declare-fun GHC.Num.fromInteger () Int)
(declare-fun GHC.Float.log () Int)
(declare-fun lq_anf$36$$35$$35$7205759403792812398$35$$35$d4Tc () Str)
(declare-fun lq_tmp$36$x$35$$35$1478 () Int)
(declare-fun GHC.Types.SumRep () Int)
(declare-fun Data.ByteString.Builder.Prim.Internal.UncheckedShifts.shiftr_w32 () Int)
(declare-fun lq_karg$36$lq_anf$36$$35$$35$7205759403792812385$35$$35$d4SZ$35$$35$k_$35$$35$949 () Int)
(declare-fun lq_tmp$36$x$35$$35$483 () Int)
(declare-fun GHC.Float.sin () Int)
(declare-fun x_Tuple21 () Int)
(declare-fun GHC.ForeignPtr.ForeignPtr () Int)
(declare-fun GHC.Num.abs () Int)
(declare-fun GHC.Prim.$40$$35$$44$$44$$44$$44$$44$$44$$44$$44$$44$$44$$44$$44$$44$$44$$44$$35$$41$ () Int)
(declare-fun lq_anf$36$$35$$35$7205759403792812361$35$$35$d4SB () Str)
(declare-fun lq_anf$36$$35$$35$7205759403792812357$35$$35$d4Sx () Str)
(declare-fun head () Int)
(declare-fun GHC.CString.unpackCStringUtf8$35$ () Int)
(declare-fun lq_anf$36$$35$$35$7205759403792812373$35$$35$d4SN () Int)
(declare-fun w$35$$35$a4PC () Int)
(declare-fun lq_anf$36$$35$$35$7205759403792812371$35$$35$d4SL () Int)
(declare-fun lq_anf$36$$35$$35$7205759403792812394$35$$35$d4T8 () Int)
(declare-fun GHC.Maybe.Nothing () Int)
(declare-fun lq_karg$36$VV$35$$35$488$35$$35$k_$35$$35$489 () Int)
(declare-fun lq_tmp$36$x$35$$35$1307 () Int)
(declare-fun GHC.Prim.$60$$61$$35$ () Int)
(declare-fun GHC.Types.D$35$ () Int)
(declare-fun lq_anf$36$$35$$35$7205759403792812395$35$$35$d4T9 () Int)
(declare-fun Data.ByteString.Builder.Prim.Internal.UncheckedShifts.caseWordSize_32_64 () Int)
(declare-fun GHC.Prim.$40$$35$$44$$35$$41$ () Int)
(declare-fun lq_anf$36$$35$$35$7205759403792812401$35$$35$d4Tf () Str)
(declare-fun GHC.Prim.uncheckedShiftRL$35$ () Int)
(declare-fun GHC.Num.Integer.IP () Int)
(declare-fun Foreign.Ptr.WordPtr () Int)
(declare-fun VV$35$$35$F$35$$35$22 () Int)
(declare-fun GHC.Base.map () Int)
(declare-fun lq_anf$36$$35$$35$7205759403792812381$35$$35$d4SV () Str)
(declare-fun x_Tuple32 () Int)
(declare-fun GHC.Err.error () Int)
(declare-fun GHC.Types.TupleRep () Int)
(declare-fun GHC.Float.exp () Int)
(declare-fun lq_anf$36$$35$$35$7205759403792812370$35$$35$d4SK () Int)
(declare-fun ds_d4Sl () Int)
(declare-fun lq_anf$36$$35$$35$7205759403792812374$35$$35$d4SO () Int)
(declare-fun f64$35$$35$a4PL () Int)
(declare-fun GHC.Types.TrNameS () Int)
(declare-fun GHC.Num.Integer.IN () Int)
(declare-fun lq_anf$36$$35$$35$7205759403792812387$35$$35$d4T1 () Int)
(declare-fun GHC.Num.$42$ () Int)
(declare-fun lq_anf$36$$35$$35$7205759403792812386$35$$35$d4T0 () Int)
(declare-fun GHC.Types.False () Bool)
(declare-fun GHC.Prim.Solo$35$ () Int)
(declare-fun papp2 () Int)
(declare-fun lq_tmp$36$x$35$$35$646 () Int)
(declare-fun ds_d4Sf () Int)
(declare-fun GHC.Float.cos () Int)
(declare-fun lq_karg$36$lq_anf$36$$35$$35$7205759403792812378$35$$35$d4SS$35$$35$k_$35$$35$949 () Str)
(declare-fun GHC.Types.GT () Int)
(declare-fun lq_tmp$36$x$35$$35$1099 () Int)
(declare-fun GHC.Types.Int32Rep () Int)
(declare-fun Data.ByteString.Builder.Prim.Internal.UncheckedShifts.shiftr_w64 () Int)
(declare-fun apply$35$$35$31 (Int (_ BitVec 64)) Bool)
(declare-fun apply$35$$35$25 (Int (_ BitVec 32)) Bool)
(declare-fun apply$35$$35$1 (Int Int) Bool)
(declare-fun apply$35$$35$5 (Int Int) (_ BitVec 64))
(declare-fun apply$35$$35$4 (Int Int) (_ BitVec 32))
(declare-fun apply$35$$35$8 (Int Bool) Real)
(declare-fun apply$35$$35$35 (Int (_ BitVec 64)) (_ BitVec 64))
(declare-fun apply$35$$35$34 (Int (_ BitVec 64)) (_ BitVec 32))
(declare-fun apply$35$$35$28 (Int (_ BitVec 32)) (_ BitVec 32))
(declare-fun apply$35$$35$29 (Int (_ BitVec 32)) (_ BitVec 64))
(declare-fun apply$35$$35$14 (Int Real) Real)
(declare-fun apply$35$$35$27 (Int (_ BitVec 32)) Str)
(declare-fun apply$35$$35$33 (Int (_ BitVec 64)) Str)
(declare-fun apply$35$$35$19 (Int Str) Bool)
(declare-fun apply$35$$35$6 (Int Bool) Int)
(declare-fun apply$35$$35$13 (Int Real) Bool)
(declare-fun apply$35$$35$21 (Int Str) Str)
(declare-fun apply$35$$35$22 (Int Str) (_ BitVec 32))
(declare-fun apply$35$$35$23 (Int Str) (_ BitVec 64))
(declare-fun apply$35$$35$2 (Int Int) Real)
(declare-fun apply$35$$35$15 (Int Real) Str)
(declare-fun apply$35$$35$30 (Int (_ BitVec 64)) Int)
(declare-fun apply$35$$35$24 (Int (_ BitVec 32)) Int)
(declare-fun apply$35$$35$18 (Int Str) Int)
(declare-fun apply$35$$35$0 (Int Int) Int)
(declare-fun apply$35$$35$9 (Int Bool) Str)
(declare-fun apply$35$$35$10 (Int Bool) (_ BitVec 32))
(declare-fun apply$35$$35$11 (Int Bool) (_ BitVec 64))
(declare-fun apply$35$$35$32 (Int (_ BitVec 64)) Real)
(declare-fun apply$35$$35$26 (Int (_ BitVec 32)) Real)
(declare-fun apply$35$$35$16 (Int Real) (_ BitVec 32))
(declare-fun apply$35$$35$17 (Int Real) (_ BitVec 64))
(declare-fun apply$35$$35$20 (Int Str) Real)
(declare-fun apply$35$$35$3 (Int Int) Str)
(declare-fun apply$35$$35$7 (Int Bool) Bool)
(declare-fun apply$35$$35$12 (Int Real) Int)
(declare-fun coerce$35$$35$31 ((_ BitVec 64)) Bool)
(declare-fun coerce$35$$35$25 ((_ BitVec 32)) Bool)
(declare-fun coerce$35$$35$1 (Int) Bool)
(declare-fun coerce$35$$35$5 (Int) (_ BitVec 64))
(declare-fun coerce$35$$35$4 (Int) (_ BitVec 32))
(declare-fun coerce$35$$35$8 (Bool) Real)
(declare-fun coerce$35$$35$35 ((_ BitVec 64)) (_ BitVec 64))
(declare-fun coerce$35$$35$34 ((_ BitVec 64)) (_ BitVec 32))
(declare-fun coerce$35$$35$28 ((_ BitVec 32)) (_ BitVec 32))
(declare-fun coerce$35$$35$29 ((_ BitVec 32)) (_ BitVec 64))
(declare-fun coerce$35$$35$14 (Real) Real)
(declare-fun coerce$35$$35$27 ((_ BitVec 32)) Str)
(declare-fun coerce$35$$35$33 ((_ BitVec 64)) Str)
(declare-fun coerce$35$$35$19 (Str) Bool)
(declare-fun coerce$35$$35$6 (Bool) Int)
(declare-fun coerce$35$$35$13 (Real) Bool)
(declare-fun coerce$35$$35$21 (Str) Str)
(declare-fun coerce$35$$35$22 (Str) (_ BitVec 32))
(declare-fun coerce$35$$35$23 (Str) (_ BitVec 64))
(declare-fun coerce$35$$35$2 (Int) Real)
(declare-fun coerce$35$$35$15 (Real) Str)
(declare-fun coerce$35$$35$30 ((_ BitVec 64)) Int)
(declare-fun coerce$35$$35$24 ((_ BitVec 32)) Int)
(declare-fun coerce$35$$35$18 (Str) Int)
(declare-fun coerce$35$$35$0 (Int) Int)
(declare-fun coerce$35$$35$9 (Bool) Str)
(declare-fun coerce$35$$35$10 (Bool) (_ BitVec 32))
(declare-fun coerce$35$$35$11 (Bool) (_ BitVec 64))
(declare-fun coerce$35$$35$32 ((_ BitVec 64)) Real)
(declare-fun coerce$35$$35$26 ((_ BitVec 32)) Real)
(declare-fun coerce$35$$35$16 (Real) (_ BitVec 32))
(declare-fun coerce$35$$35$17 (Real) (_ BitVec 64))
(declare-fun coerce$35$$35$20 (Str) Real)
(declare-fun coerce$35$$35$3 (Int) Str)
(declare-fun coerce$35$$35$7 (Bool) Bool)
(declare-fun coerce$35$$35$12 (Real) Int)
(declare-fun smt_lambda$35$$35$31 ((_ BitVec 64) Bool) Int)
(declare-fun smt_lambda$35$$35$25 ((_ BitVec 32) Bool) Int)
(declare-fun smt_lambda$35$$35$1 (Int Bool) Int)
(declare-fun smt_lambda$35$$35$5 (Int (_ BitVec 64)) Int)
(declare-fun smt_lambda$35$$35$4 (Int (_ BitVec 32)) Int)
(declare-fun smt_lambda$35$$35$8 (Bool Real) Int)
(declare-fun smt_lambda$35$$35$35 ((_ BitVec 64) (_ BitVec 64)) Int)
(declare-fun smt_lambda$35$$35$34 ((_ BitVec 64) (_ BitVec 32)) Int)
(declare-fun smt_lambda$35$$35$28 ((_ BitVec 32) (_ BitVec 32)) Int)
(declare-fun smt_lambda$35$$35$29 ((_ BitVec 32) (_ BitVec 64)) Int)
(declare-fun smt_lambda$35$$35$14 (Real Real) Int)
(declare-fun smt_lambda$35$$35$27 ((_ BitVec 32) Str) Int)
(declare-fun smt_lambda$35$$35$33 ((_ BitVec 64) Str) Int)
(declare-fun smt_lambda$35$$35$19 (Str Bool) Int)
(declare-fun smt_lambda$35$$35$6 (Bool Int) Int)
(declare-fun smt_lambda$35$$35$13 (Real Bool) Int)
(declare-fun smt_lambda$35$$35$21 (Str Str) Int)
(declare-fun smt_lambda$35$$35$22 (Str (_ BitVec 32)) Int)
(declare-fun smt_lambda$35$$35$23 (Str (_ BitVec 64)) Int)
(declare-fun smt_lambda$35$$35$2 (Int Real) Int)
(declare-fun smt_lambda$35$$35$15 (Real Str) Int)
(declare-fun smt_lambda$35$$35$30 ((_ BitVec 64) Int) Int)
(declare-fun smt_lambda$35$$35$24 ((_ BitVec 32) Int) Int)
(declare-fun smt_lambda$35$$35$18 (Str Int) Int)
(declare-fun smt_lambda$35$$35$0 (Int Int) Int)
(declare-fun smt_lambda$35$$35$9 (Bool Str) Int)
(declare-fun smt_lambda$35$$35$10 (Bool (_ BitVec 32)) Int)
(declare-fun smt_lambda$35$$35$11 (Bool (_ BitVec 64)) Int)
(declare-fun smt_lambda$35$$35$32 ((_ BitVec 64) Real) Int)
(declare-fun smt_lambda$35$$35$26 ((_ BitVec 32) Real) Int)
(declare-fun smt_lambda$35$$35$16 (Real (_ BitVec 32)) Int)
(declare-fun smt_lambda$35$$35$17 (Real (_ BitVec 64)) Int)
(declare-fun smt_lambda$35$$35$20 (Str Real) Int)
(declare-fun smt_lambda$35$$35$3 (Int Str) Int)
(declare-fun smt_lambda$35$$35$7 (Bool Bool) Int)
(declare-fun smt_lambda$35$$35$12 (Real Int) Int)
(declare-fun lam_arg$35$$35$1$35$$35$6 () Bool)
(declare-fun lam_arg$35$$35$2$35$$35$6 () Bool)
(declare-fun lam_arg$35$$35$3$35$$35$6 () Bool)
(declare-fun lam_arg$35$$35$4$35$$35$6 () Bool)
(declare-fun lam_arg$35$$35$5$35$$35$6 () Bool)
(declare-fun lam_arg$35$$35$6$35$$35$6 () Bool)
(declare-fun lam_arg$35$$35$7$35$$35$6 () Bool)
(declare-fun lam_arg$35$$35$1$35$$35$30 () (_ BitVec 64))
(declare-fun lam_arg$35$$35$2$35$$35$30 () (_ BitVec 64))
(declare-fun lam_arg$35$$35$3$35$$35$30 () (_ BitVec 64))
(declare-fun lam_arg$35$$35$4$35$$35$30 () (_ BitVec 64))
(declare-fun lam_arg$35$$35$5$35$$35$30 () (_ BitVec 64))
(declare-fun lam_arg$35$$35$6$35$$35$30 () (_ BitVec 64))
(declare-fun lam_arg$35$$35$7$35$$35$30 () (_ BitVec 64))
(declare-fun lam_arg$35$$35$1$35$$35$24 () (_ BitVec 32))
(declare-fun lam_arg$35$$35$2$35$$35$24 () (_ BitVec 32))
(declare-fun lam_arg$35$$35$3$35$$35$24 () (_ BitVec 32))
(declare-fun lam_arg$35$$35$4$35$$35$24 () (_ BitVec 32))
(declare-fun lam_arg$35$$35$5$35$$35$24 () (_ BitVec 32))
(declare-fun lam_arg$35$$35$6$35$$35$24 () (_ BitVec 32))
(declare-fun lam_arg$35$$35$7$35$$35$24 () (_ BitVec 32))
(declare-fun lam_arg$35$$35$1$35$$35$18 () Str)
(declare-fun lam_arg$35$$35$2$35$$35$18 () Str)
(declare-fun lam_arg$35$$35$3$35$$35$18 () Str)
(declare-fun lam_arg$35$$35$4$35$$35$18 () Str)
(declare-fun lam_arg$35$$35$5$35$$35$18 () Str)
(declare-fun lam_arg$35$$35$6$35$$35$18 () Str)
(declare-fun lam_arg$35$$35$7$35$$35$18 () Str)
(declare-fun lam_arg$35$$35$1$35$$35$0 () Int)
(declare-fun lam_arg$35$$35$2$35$$35$0 () Int)
(declare-fun lam_arg$35$$35$3$35$$35$0 () Int)
(declare-fun lam_arg$35$$35$4$35$$35$0 () Int)
(declare-fun lam_arg$35$$35$5$35$$35$0 () Int)
(declare-fun lam_arg$35$$35$6$35$$35$0 () Int)
(declare-fun lam_arg$35$$35$7$35$$35$0 () Int)
(declare-fun lam_arg$35$$35$1$35$$35$12 () Real)
(declare-fun lam_arg$35$$35$2$35$$35$12 () Real)
(declare-fun lam_arg$35$$35$3$35$$35$12 () Real)
(declare-fun lam_arg$35$$35$4$35$$35$12 () Real)
(declare-fun lam_arg$35$$35$5$35$$35$12 () Real)
(declare-fun lam_arg$35$$35$6$35$$35$12 () Real)
(declare-fun lam_arg$35$$35$7$35$$35$12 () Real)
(assert (distinct GHC.Prim.$40$$35$$35$$41$ GHC.Tuple.$40$$41$))
(assert (distinct GHC.Num.$36$fNumWord GHC.Word.$36$fNumWord64))

(assert (distinct lit$36$.$47$Data$47$ByteString$47$Builder$47$Prim$47$Internal$47$UncheckedShifts.hs lit$36$bytestring$45$lh$45$0.13.0.0$45$5odPtf5eoawLYRpIZ0llE6 lit$36$error lit$36$TODO$58$LH lit$36$undefined lit$36$caseWordSize_32_64$58$$32$unsupported$32$Word$32$bit$45$size$32$ lit$36$Data.ByteString.Builder.Prim.Internal.UncheckedShifts))
(assert (distinct GHC.Types.Int32Rep GHC.Types.Int16Rep GHC.Types.FloatRep GHC.Types.AddrRep GHC.Types.Int64Rep GHC.Types.WordRep GHC.Types.Int8Rep GHC.Types.DoubleRep GHC.Types.IntRep GHC.Types.Word64Rep GHC.Types.Word16Rep GHC.Types.Word8Rep GHC.Types.Word32Rep))
(assert (distinct GHC.Types.GT GHC.Types.EQ GHC.Types.LT))
(assert (distinct GHC.Word.$36$fIntegralWord64 GHC.Real.$36$fIntegralWord))
(assert (distinct GHC.Types.False GHC.Types.True))


(assert (= (strLen lit$36$Data.ByteString.Builder.Prim.Internal.UncheckedShifts) 53))
(assert (= (strLen lit$36$caseWordSize_32_64$58$$32$unsupported$32$Word$32$bit$45$size$32$) 46))
(assert (= (strLen lit$36$undefined) 9))
(assert (= (strLen lit$36$TODO$58$LH) 7))
(assert (= (strLen lit$36$error) 5))
(assert (= (strLen lit$36$bytestring$45$lh$45$0.13.0.0$45$5odPtf5eoawLYRpIZ0llE6) 45))
(assert (= (strLen lit$36$.$47$Data$47$ByteString$47$Builder$47$Prim$47$Internal$47$UncheckedShifts.hs) 58))
(push 1)
(define-fun b$36$$35$$35$128 () Bool (and (= (apply$35$$35$18 (as len Int) lq_anf$36$$35$$35$7205759403792812364$35$$35$d4SE) (strLen lq_anf$36$$35$$35$7205759403792812363$35$$35$d4SD)) (>= (apply$35$$35$18 (as len Int) lq_anf$36$$35$$35$7205759403792812364$35$$35$d4SE) 0) (= lq_anf$36$$35$$35$7205759403792812364$35$$35$d4SE lq_anf$36$$35$$35$7205759403792812363$35$$35$d4SD)))
(define-fun b$36$$35$$35$160 () Bool (and (= (apply$35$$35$3 (as fst Int) lq_anf$36$$35$$35$7205759403792812393$35$$35$d4T7) lq_anf$36$$35$$35$7205759403792812377$35$$35$d4SR) (= (apply$35$$35$0 (as snd Int) lq_anf$36$$35$$35$7205759403792812393$35$$35$d4T7) lq_anf$36$$35$$35$7205759403792812392$35$$35$d4T6) (= (apply$35$$35$3 (as x_Tuple21 Int) lq_anf$36$$35$$35$7205759403792812393$35$$35$d4T7) lq_anf$36$$35$$35$7205759403792812377$35$$35$d4SR) (= (apply$35$$35$0 (as x_Tuple22 Int) lq_anf$36$$35$$35$7205759403792812393$35$$35$d4T7) lq_anf$36$$35$$35$7205759403792812392$35$$35$d4T6)))
(define-fun b$36$$35$$35$129 () Bool (= lq_anf$36$$35$$35$7205759403792812365$35$$35$d4SF 105))
(define-fun b$36$$35$$35$130 () Bool (= lq_anf$36$$35$$35$7205759403792812366$35$$35$d4SG lq_anf$36$$35$$35$7205759403792812365$35$$35$d4SF))
(define-fun b$36$$35$$35$131 () Bool (= lq_anf$36$$35$$35$7205759403792812367$35$$35$d4SH 11))
(define-fun b$36$$35$$35$132 () Bool (= lq_anf$36$$35$$35$7205759403792812368$35$$35$d4SI lq_anf$36$$35$$35$7205759403792812367$35$$35$d4SH))
(define-fun b$36$$35$$35$133 () Bool (= lq_anf$36$$35$$35$7205759403792812369$35$$35$d4SJ 105))
(define-fun b$36$$35$$35$134 () Bool (= lq_anf$36$$35$$35$7205759403792812370$35$$35$d4SK lq_anf$36$$35$$35$7205759403792812369$35$$35$d4SJ))
(define-fun b$36$$35$$35$135 () Bool (= lq_anf$36$$35$$35$7205759403792812371$35$$35$d4SL 16))
(define-fun b$36$$35$$35$167 () Bool (= lq_anf$36$$35$$35$7205759403792812396$35$$35$d4Ta ds_d4Sd))
(define-fun b$36$$35$$35$136 () Bool (= lq_anf$36$$35$$35$7205759403792812372$35$$35$d4SM lq_anf$36$$35$$35$7205759403792812371$35$$35$d4SL))
(define-fun b$36$$35$$35$168 () Bool (= lq_anf$36$$35$$35$7205759403792812396$35$$35$d4Ta ds_d4Sd))
(define-fun b$36$$35$$35$170 () Bool (and (= lq_anf$36$$35$$35$7205759403792812396$35$$35$d4Ta ds_d4Sd) (= lq_anf$36$$35$$35$7205759403792812396$35$$35$d4Ta ds_d4Sf) (= lq_anf$36$$35$$35$7205759403792812396$35$$35$d4Ta ds_d4Sf)))
(define-fun b$36$$35$$35$139 () Bool (and (= (apply$35$$35$3 (as fst Int) lq_anf$36$$35$$35$7205759403792812374$35$$35$d4SO) lq_anf$36$$35$$35$7205759403792812358$35$$35$d4Sy) (= (apply$35$$35$0 (as snd Int) lq_anf$36$$35$$35$7205759403792812374$35$$35$d4SO) lq_anf$36$$35$$35$7205759403792812373$35$$35$d4SN) (= (apply$35$$35$3 (as x_Tuple21 Int) lq_anf$36$$35$$35$7205759403792812374$35$$35$d4SO) lq_anf$36$$35$$35$7205759403792812358$35$$35$d4Sy) (= (apply$35$$35$0 (as x_Tuple22 Int) lq_anf$36$$35$$35$7205759403792812374$35$$35$d4SO) lq_anf$36$$35$$35$7205759403792812373$35$$35$d4SN)))
(define-fun b$36$$35$$35$171 () Bool (= lq_anf$36$$35$$35$7205759403792812397$35$$35$d4Tb ds_d4Sf))
(define-fun b$36$$35$$35$331 () Bool (and (= VV$35$$35$F$35$$35$26 lq_anf$36$$35$$35$7205759403792812401$35$$35$d4Tf) (= (apply$35$$35$18 (as len Int) VV$35$$35$F$35$$35$26) (+ (apply$35$$35$18 (as len Int) lq_anf$36$$35$$35$7205759403792812399$35$$35$d4Td) (apply$35$$35$18 (as len Int) lq_anf$36$$35$$35$7205759403792812400$35$$35$d4Te))) (>= (apply$35$$35$18 (as len Int) VV$35$$35$F$35$$35$26) 0)))
(define-fun b$36$$35$$35$172 () Bool (and (= lq_anf$36$$35$$35$7205759403792812397$35$$35$d4Tb ds_d4Sf) (not (= lq_anf$36$$35$$35$7205759403792812397$35$$35$d4Tb 32)) (not (= lq_anf$36$$35$$35$7205759403792812397$35$$35$d4Tb 64))))
(define-fun b$36$$35$$35$173 () Bool (= lq_anf$36$$35$$35$7205759403792812398$35$$35$d4Tc lit$36$caseWordSize_32_64$58$$32$unsupported$32$Word$32$bit$45$size$32$))
(define-fun b$36$$35$$35$142 () Bool (= lq_anf$36$$35$$35$7205759403792812376$35$$35$d4SQ lit$36$undefined))
(define-fun b$36$$35$$35$174 () Bool (and (= (apply$35$$35$18 (as len Int) lq_anf$36$$35$$35$7205759403792812399$35$$35$d4Td) (strLen lq_anf$36$$35$$35$7205759403792812398$35$$35$d4Tc)) (>= (apply$35$$35$18 (as len Int) lq_anf$36$$35$$35$7205759403792812399$35$$35$d4Td) 0) (= lq_anf$36$$35$$35$7205759403792812399$35$$35$d4Td lq_anf$36$$35$$35$7205759403792812398$35$$35$d4Tc)))
(define-fun b$36$$35$$35$143 () Bool (and (= (apply$35$$35$18 (as len Int) lq_anf$36$$35$$35$7205759403792812377$35$$35$d4SR) (strLen lq_anf$36$$35$$35$7205759403792812376$35$$35$d4SQ)) (>= (apply$35$$35$18 (as len Int) lq_anf$36$$35$$35$7205759403792812377$35$$35$d4SR) 0) (= lq_anf$36$$35$$35$7205759403792812377$35$$35$d4SR lq_anf$36$$35$$35$7205759403792812376$35$$35$d4SQ)))
(define-fun b$36$$35$$35$175 () Bool (>= (apply$35$$35$18 (as len Int) lq_anf$36$$35$$35$7205759403792812400$35$$35$d4Te) 0))
(define-fun b$36$$35$$35$144 () Bool (= lq_anf$36$$35$$35$7205759403792812378$35$$35$d4SS lit$36$bytestring$45$lh$45$0.13.0.0$45$5odPtf5eoawLYRpIZ0llE6))
(define-fun b$36$$35$$35$176 () Bool (and (= (apply$35$$35$18 (as len Int) lq_anf$36$$35$$35$7205759403792812401$35$$35$d4Tf) (+ (apply$35$$35$18 (as len Int) lq_anf$36$$35$$35$7205759403792812399$35$$35$d4Td) (apply$35$$35$18 (as len Int) lq_anf$36$$35$$35$7205759403792812400$35$$35$d4Te))) (>= (apply$35$$35$18 (as len Int) lq_anf$36$$35$$35$7205759403792812401$35$$35$d4Tf) 0)))
(define-fun b$36$$35$$35$145 () Bool (and (= (apply$35$$35$18 (as len Int) lq_anf$36$$35$$35$7205759403792812379$35$$35$d4ST) (strLen lq_anf$36$$35$$35$7205759403792812378$35$$35$d4SS)) (>= (apply$35$$35$18 (as len Int) lq_anf$36$$35$$35$7205759403792812379$35$$35$d4ST) 0) (= lq_anf$36$$35$$35$7205759403792812379$35$$35$d4ST lq_anf$36$$35$$35$7205759403792812378$35$$35$d4SS)))
(define-fun b$36$$35$$35$82 () Bool (not GHC.Types.False))
(define-fun b$36$$35$$35$146 () Bool (= lq_anf$36$$35$$35$7205759403792812380$35$$35$d4SU lit$36$Data.ByteString.Builder.Prim.Internal.UncheckedShifts))
(define-fun b$36$$35$$35$147 () Bool (and (= (apply$35$$35$18 (as len Int) lq_anf$36$$35$$35$7205759403792812381$35$$35$d4SV) (strLen lq_anf$36$$35$$35$7205759403792812380$35$$35$d4SU)) (>= (apply$35$$35$18 (as len Int) lq_anf$36$$35$$35$7205759403792812381$35$$35$d4SV) 0) (= lq_anf$36$$35$$35$7205759403792812381$35$$35$d4SV lq_anf$36$$35$$35$7205759403792812380$35$$35$d4SU)))
(define-fun b$36$$35$$35$84 () Bool GHC.Types.True)
(define-fun b$36$$35$$35$148 () Bool (= lq_anf$36$$35$$35$7205759403792812382$35$$35$d4SW lit$36$.$47$Data$47$ByteString$47$Builder$47$Prim$47$Internal$47$UncheckedShifts.hs))
(define-fun b$36$$35$$35$149 () Bool (and (= (apply$35$$35$18 (as len Int) lq_anf$36$$35$$35$7205759403792812383$35$$35$d4SX) (strLen lq_anf$36$$35$$35$7205759403792812382$35$$35$d4SW)) (>= (apply$35$$35$18 (as len Int) lq_anf$36$$35$$35$7205759403792812383$35$$35$d4SX) 0) (= lq_anf$36$$35$$35$7205759403792812383$35$$35$d4SX lq_anf$36$$35$$35$7205759403792812382$35$$35$d4SW)))
(define-fun b$36$$35$$35$150 () Bool (= lq_anf$36$$35$$35$7205759403792812384$35$$35$d4SY 101))
(define-fun b$36$$35$$35$151 () Bool (= lq_anf$36$$35$$35$7205759403792812385$35$$35$d4SZ lq_anf$36$$35$$35$7205759403792812384$35$$35$d4SY))
(define-fun b$36$$35$$35$152 () Bool (= lq_anf$36$$35$$35$7205759403792812386$35$$35$d4T0 17))
(define-fun b$36$$35$$35$121 () Bool (= lq_anf$36$$35$$35$7205759403792812357$35$$35$d4Sx lit$36$error))
(define-fun b$36$$35$$35$153 () Bool (= lq_anf$36$$35$$35$7205759403792812387$35$$35$d4T1 lq_anf$36$$35$$35$7205759403792812386$35$$35$d4T0))
(define-fun b$36$$35$$35$122 () Bool (and (= (apply$35$$35$18 (as len Int) lq_anf$36$$35$$35$7205759403792812358$35$$35$d4Sy) (strLen lq_anf$36$$35$$35$7205759403792812357$35$$35$d4Sx)) (>= (apply$35$$35$18 (as len Int) lq_anf$36$$35$$35$7205759403792812358$35$$35$d4Sy) 0) (= lq_anf$36$$35$$35$7205759403792812358$35$$35$d4Sy lq_anf$36$$35$$35$7205759403792812357$35$$35$d4Sx)))
(define-fun b$36$$35$$35$154 () Bool (= lq_anf$36$$35$$35$7205759403792812388$35$$35$d4T2 101))
(define-fun b$36$$35$$35$123 () Bool (= lq_anf$36$$35$$35$7205759403792812359$35$$35$d4Sz lit$36$bytestring$45$lh$45$0.13.0.0$45$5odPtf5eoawLYRpIZ0llE6))
(define-fun b$36$$35$$35$155 () Bool (= lq_anf$36$$35$$35$7205759403792812389$35$$35$d4T3 lq_anf$36$$35$$35$7205759403792812388$35$$35$d4T2))
(define-fun b$36$$35$$35$124 () Bool (and (= (apply$35$$35$18 (as len Int) lq_anf$36$$35$$35$7205759403792812360$35$$35$d4SA) (strLen lq_anf$36$$35$$35$7205759403792812359$35$$35$d4Sz)) (>= (apply$35$$35$18 (as len Int) lq_anf$36$$35$$35$7205759403792812360$35$$35$d4SA) 0) (= lq_anf$36$$35$$35$7205759403792812360$35$$35$d4SA lq_anf$36$$35$$35$7205759403792812359$35$$35$d4Sz)))
(define-fun b$36$$35$$35$156 () Bool (= lq_anf$36$$35$$35$7205759403792812390$35$$35$d4T4 26))
(define-fun b$36$$35$$35$125 () Bool (= lq_anf$36$$35$$35$7205759403792812361$35$$35$d4SB lit$36$Data.ByteString.Builder.Prim.Internal.UncheckedShifts))
(define-fun b$36$$35$$35$157 () Bool (= lq_anf$36$$35$$35$7205759403792812391$35$$35$d4T5 lq_anf$36$$35$$35$7205759403792812390$35$$35$d4T4))
(define-fun b$36$$35$$35$126 () Bool (and (= (apply$35$$35$18 (as len Int) lq_anf$36$$35$$35$7205759403792812362$35$$35$d4SC) (strLen lq_anf$36$$35$$35$7205759403792812361$35$$35$d4SB)) (>= (apply$35$$35$18 (as len Int) lq_anf$36$$35$$35$7205759403792812362$35$$35$d4SC) 0) (= lq_anf$36$$35$$35$7205759403792812362$35$$35$d4SC lq_anf$36$$35$$35$7205759403792812361$35$$35$d4SB)))
(define-fun b$36$$35$$35$127 () Bool (= lq_anf$36$$35$$35$7205759403792812363$35$$35$d4SD lit$36$.$47$Data$47$ByteString$47$Builder$47$Prim$47$Internal$47$UncheckedShifts.hs))
(push 1)
(push 1)
(assert (and false b$36$$35$$35$128 b$36$$35$$35$160 b$36$$35$$35$129 b$36$$35$$35$130 b$36$$35$$35$131 b$36$$35$$35$132 b$36$$35$$35$133 b$36$$35$$35$134 b$36$$35$$35$135 b$36$$35$$35$167 b$36$$35$$35$136 b$36$$35$$35$168 b$36$$35$$35$170 b$36$$35$$35$139 b$36$$35$$35$171 b$36$$35$$35$331 b$36$$35$$35$172 b$36$$35$$35$173 b$36$$35$$35$142 b$36$$35$$35$174 b$36$$35$$35$143 b$36$$35$$35$175 b$36$$35$$35$144 b$36$$35$$35$176 b$36$$35$$35$145 b$36$$35$$35$82 b$36$$35$$35$146 b$36$$35$$35$147 b$36$$35$$35$84 b$36$$35$$35$148 b$36$$35$$35$149 b$36$$35$$35$150 b$36$$35$$35$151 b$36$$35$$35$152 b$36$$35$$35$121 b$36$$35$$35$153 b$36$$35$$35$122 b$36$$35$$35$154 b$36$$35$$35$123 b$36$$35$$35$155 b$36$$35$$35$124 b$36$$35$$35$156 b$36$$35$$35$125 b$36$$35$$35$157 b$36$$35$$35$126 b$36$$35$$35$127))
(push 1)
(assert (not false))
(check-sat)
; SMT Says: Unsat
(pop 1)
(pop 1)
(pop 1)
(pop 1)
